p wcnf 143 214 215 
1 -87 40 0 
1 -59 -29 0 
1 12 -52 0 
1 38 -56 0 
1 61 16 0 
1 -139 16 0 
1 40 27 0 
1 -109 -127 0 
1 -138 -60 0 
1 5 55 0 
1 -102 -116 0 
1 -130 -106 0 
1 3 95 0 
1 -81 126 0 
1 -82 6 0 
1 138 136 0 
1 -99 -133 0 
1 84 -46 0 
1 35 131 0 
1 -55 14 0 
1 79 68 0 
1 92 125 0 
1 83 12 0 
1 77 128 0 
1 107 -53 0 
1 138 -101 0 
1 72 -45 0 
1 111 77 0 
1 -138 95 0 
1 -87 -110 0 
1 -124 -100 0 
1 67 20 0 
1 84 -110 0 
1 -125 -140 0 
1 72 3 0 
1 -143 102 0 
1 -119 -102 0 
1 9 -21 0 
1 80 -47 0 
1 -139 -110 0 
1 -133 -108 0 
1 -2 -113 0 
1 38 28 0 
1 -125 -127 0 
1 8 -80 0 
1 90 -118 0 
1 23 -57 0 
1 22 112 0 
1 -13 -108 0 
1 -56 -27 0 
1 137 30 0 
1 98 -141 0 
1 143 -16 0 
1 -88 -33 0 
1 24 -54 0 
1 60 139 0 
1 29 63 0 
1 -122 111 0 
1 52 136 0 
1 96 -35 0 
1 112 18 0 
1 51 -117 0 
1 37 -106 0 
1 34 103 0 
1 22 68 0 
1 -54 -46 0 
1 -73 54 0 
1 -66 -74 0 
1 -6 -101 0 
1 87 -41 0 
1 -114 -135 0 
1 139 67 0 
1 -70 -117 0 
1 30 -103 0 
1 -114 -21 0 
1 141 139 0 
1 -118 12 0 
1 31 63 0 
1 -5 23 0 
1 -128 -107 0 
1 41 85 0 
1 -132 140 0 
1 -20 -21 0 
1 96 -46 0 
1 -1 -111 0 
1 -68 126 0 
1 21 8 0 
1 106 -87 0 
1 86 -38 0 
1 -141 2 0 
1 -33 -16 0 
1 115 75 0 
1 17 -57 0 
1 55 103 0 
1 81 11 0 
1 126 -53 0 
1 -73 87 0 
1 46 -137 0 
1 62 125 0 
1 69 -143 0 
1 127 129 0 
1 134 70 0 
1 -86 71 0 
1 -5 116 0 
1 112 28 0 
1 -81 -60 0 
1 -143 -135 0 
1 -132 -114 0 
1 -126 -55 0 
1 -86 -118 0 
1 15 -79 0 
1 49 -69 0 
1 -46 17 0 
1 -90 -23 0 
1 -59 50 0 
1 85 24 0 
1 51 19 0 
1 -123 -94 0 
1 -115 41 0 
1 -44 -7 0 
1 134 -94 0 
1 -104 122 0 
1 -93 65 0 
1 21 28 0 
1 39 81 0 
1 -82 -53 0 
1 12 -17 0 
1 -143 122 0 
1 95 -125 0 
1 -141 66 0 
1 -59 27 0 
1 54 -52 0 
1 -97 -45 0 
1 -93 55 0 
1 94 -122 0 
1 -49 107 0 
1 -87 -25 0 
1 76 -44 0 
1 -43 -27 0 
1 77 69 0 
1 27 -26 0 
1 -131 -96 0 
1 21 32 0 
1 -51 -53 0 
1 13 85 0 
1 -4 58 0 
1 30 -114 0 
1 -101 -104 0 
1 13 95 0 
1 75 -49 0 
1 -37 -93 0 
1 28 -104 0 
1 -104 -122 0 
1 65 -53 0 
1 -48 6 0 
1 -123 83 0 
1 -64 117 0 
1 -109 -97 0 
1 72 79 0 
1 87 20 0 
1 77 116 0 
1 -88 -13 0 
1 -54 82 0 
1 26 20 0 
1 -54 -12 0 
1 62 105 0 
1 -132 49 0 
1 69 26 0 
1 21 -3 0 
1 45 129 0 
1 -17 69 0 
1 -91 -59 0 
1 -43 35 0 
1 -143 49 0 
1 -31 -22 0 
1 26 -90 0 
1 -28 30 0 
1 55 -4 0 
1 -12 -50 0 
1 125 86 0 
1 25 110 0 
1 58 -62 0 
1 126 69 0 
1 -52 -120 0 
1 -6 -45 0 
1 32 -11 0 
1 -105 -120 0 
1 -16 -8 0 
1 63 34 0 
1 143 -130 0 
1 12 -113 0 
1 -27 -44 0 
1 -126 -82 0 
1 71 51 0 
1 -71 -83 0 
1 -103 -98 0 
1 -142 -68 0 
1 -122 -97 0 
1 -67 55 0 
1 104 87 0 
1 -4 81 0 
1 23 97 0 
1 5 -132 0 
1 6 8 0 
1 -94 -43 0 
1 -88 -89 0 
1 -112 -69 0 
1 -16 73 0 
1 -65 -34 0 
1 -8 -56 0 
1 -86 -35 0 
1 -59 -119 0 
1 50 -1 0 
1 61 37 0 
